Geographic Exponential Decay
40 2 155 100 283 190 91 53 142 16 18 199 123 156 38 94 296 3 17 233 88 143 263 84 97 87 43 61 311 291 14 86 57 315 193 21 245 191 1 186 243
p edge 320 1254
e 0 203 1.0
e 0 22 25.0
e 0 186 47.0
e 0 278 7.0
e 1 225 1.0
e 1 242 98.0
e 1 57 95.0
e 1 132 90.0
e 1 26 5.0
e 1 61 49.0
e 1 27 55.0
e 1 107 74.0
e 1 170 99.0
e 1 129 21.0
e 1 108 75.0
e 1 21 15.0
e 1 88 72.0
e 1 226 7.0
e 1 275 61.0
e 1 154 81.0
e 1 311 93.0
e 1 133 5.0
e 1 36 16.0
e 1 136 44.0
e 1 73 68.0
e 1 141 31.0
e 1 304 40.0
e 1 213 39.0
e 1 45 100.0
e 1 253 21.0
e 1 81 82.0
e 2 109 79.0
e 2 54 53.0
e 2 29 26.0
e 2 3 10.0
e 2 192 45.0
e 2 224 100.0
e 2 217 67.0
e 2 157 6.0
e 2 79 9.0
e 2 254 11.0
e 2 7 10.0
e 2 238 74.0
e 2 176 9.0
e 2 294 75.0
e 2 64 13.0
e 2 9 31.0
e 2 195 25.0
e 2 209 40.0
e 2 206 60.0
e 2 315 94.0
e 2 287 37.0
e 2 78 47.0
e 2 292 89.0
e 2 97 65.0
e 2 94 33.0
e 2 283 85.0
e 2 227 87.0
e 3 92 36.0
e 3 281 9.0
e 3 313 52.0
e 3 117 18.0
e 3 103 68.0
e 3 90 29.0
e 3 42 66.0
e 3 182 57.0
e 3 237 51.0
e 3 32 44.0
e 3 118 76.0
e 3 302 94.0
e 3 294 98.0
e 3 207 26.0
e 3 27 27.0
e 3 299 47.0
e 3 91 12.0
e 3 152 7.0
e 3 196 86.0
e 3 234 72.0
e 3 286 79.0
e 3 51 57.0
e 3 94 93.0
e 3 88 52.0
e 3 125 95.0
e 3 89 80.0
e 4 78 1.0
e 5 219 2.0
e 6 174 4.0
e 7 86 5.0
e 8 234 5.0
e 8 195 1.0
e 9 273 21.0
e 9 34 4.0
e 9 77 14.0
e 9 94 24.0
e 9 271 23.0
e 9 228 12.0
e 10 240 2.0
e 11 36 12.0
e 11 98 9.0
e 11 318 1.0
e 11 269 3.0
e 12 279 2.0
e 13 158 1.0
e 14 198 98.0
e 14 219 37.0
e 14 32 49.0
e 14 51 81.0
e 14 34 64.0
e 14 60 27.0
e 14 99 74.0
e 14 146 6.0
e 14 297 41.0
e 14 306 38.0
e 14 74 17.0
e 14 29 67.0
e 14 236 7.0
e 14 176 96.0
e 14 170 80.0
e 14 1 77.0
e 14 3 34.0
e 14 114 32.0
e 14 164 54.0
e 14 109 30.0
e 14 157 44.0
e 14 286 22.0
e 14 307 44.0
e 14 85 28.0
e 14 150 53.0
e 14 147 17.0
e 14 233 1.0
e 15 85 2.0
e 16 78 3.0
e 16 299 94.0
e 16 144 68.0
e 16 87 32.0
e 16 244 76.0
e 16 135 28.0
e 16 228 11.0
e 16 256 15.0
e 16 83 10.0
e 16 101 73.0
e 16 29 30.0
e 16 136 13.0
e 16 11 65.0
e 16 187 17.0
e 16 257 18.0
e 16 226 4.0
e 16 31 59.0
e 16 105 26.0
e 16 300 64.0
e 16 81 29.0
e 16 15 46.0
e 16 282 93.0
e 16 155 26.0
e 16 265 88.0
e 16 115 19.0
e 16 271 90.0
e 16 127 5.0
e 17 9 38.0
e 17 161 65.0
e 17 238 50.0
e 17 77 56.0
e 17 105 77.0
e 17 309 8.0
e 17 81 72.0
e 17 307 4.0
e 17 232 42.0
e 17 156 40.0
e 17 208 9.0
e 17 93 31.0
e 17 316 63.0
e 17 198 95.0
e 17 157 89.0
e 17 63 33.0
e 17 223 91.0
e 17 95 81.0
e 17 70 53.0
e 17 258 80.0
e 17 87 15.0
e 17 138 44.0
e 17 186 61.0
e 17 100 26.0
e 17 317 23.0
e 17 139 58.0
e 17 249 72.0
e 18 26 36.0
e 18 305 47.0
e 18 144 61.0
e 18 100 49.0
e 18 233 5.0
e 18 199 58.0
e 18 303 79.0
e 18 294 6.0
e 18 5 19.0
e 18 201 87.0
e 18 257 29.0
e 18 207 72.0
e 18 279 44.0
e 18 287 63.0
e 18 229 8.0
e 18 264 61.0
e 18 187 10.0
e 18 73 62.0
e 18 178 28.0
e 18 159 53.0
e 18 10 21.0
e 18 260 96.0
e 18 283 15.0
e 18 230 85.0
e 18 290 95.0
e 18 21 73.0
e 18 269 61.0
e 19 192 6.0
e 19 24 5.0
e 19 227 7.0
e 19 275 1.0
e 19 68 7.0
e 19 26 12.0
e 19 95 8.0
e 20 87 64.0
e 20 55 22.0
e 20 209 8.0
e 20 91 43.0
e 20 293 3.0
e 20 313 1.0
e 20 122 19.0
e 21 83 65.0
e 21 87 2.0
e 21 47 10.0
e 21 27 50.0
e 21 10 52.0
e 21 99 100.0
e 21 278 83.0
e 21 124 69.0
e 21 74 90.0
e 21 189 25.0
e 21 253 3.0
e 21 298 39.0
e 21 22 33.0
e 21 279 93.0
e 21 270 85.0
e 21 318 27.0
e 21 108 94.0
e 21 234 79.0
e 21 248 8.0
e 21 225 94.0
e 21 36 85.0
e 21 86 2.0
e 21 299 59.0
e 21 210 7.0
e 21 226 11.0
e 22 213 9.0
e 22 270 4.0
e 22 62 23.0
e 22 308 7.0
e 22 44 9.0
e 23 307 6.0
e 25 5 20.0
e 25 214 20.0
e 25 318 5.0
e 25 36 23.0
e 25 223 9.0
e 25 296 91.0
e 25 87 51.0
e 26 186 21.0
e 26 24 7.0
e 26 202 10.0
e 26 115 16.0
e 28 108 1.0
e 30 111 2.0
e 33 139 5.0
e 35 191 9.0
e 37 30 1.0
e 37 79 7.0
e 37 147 5.0
e 37 76 8.0
e 38 204 41.0
e 38 190 68.0
e 38 168 51.0
e 38 308 2.0
e 38 211 72.0
e 38 158 86.0
e 38 72 32.0
e 38 35 54.0
e 38 57 49.0
e 38 291 54.0
e 38 222 14.0
e 38 0 90.0
e 38 138 43.0
e 38 312 76.0
e 38 98 72.0
e 38 306 83.0
e 38 301 17.0
e 38 297 90.0
e 38 60 93.0
e 38 206 47.0
e 38 290 40.0
e 38 294 1.0
e 38 162 38.0
e 38 66 21.0
e 38 99 83.0
e 38 313 28.0
e 38 280 54.0
e 39 1 12.0
e 40 185 5.0
e 40 124 2.0
e 41 187 5.0
e 43 86 39.0
e 43 303 66.0
e 43 166 35.0
e 43 132 56.0
e 43 297 95.0
e 43 222 5.0
e 43 225 81.0
e 43 304 42.0
e 43 74 4.0
e 43 52 85.0
e 43 3 46.0
e 43 289 15.0
e 43 146 76.0
e 43 163 80.0
e 43 237 77.0
e 43 37 92.0
e 43 186 95.0
e 43 114 1.0
e 43 252 61.0
e 43 144 68.0
e 43 286 56.0
e 43 77 43.0
e 43 67 54.0
e 43 239 46.0
e 43 187 89.0
e 43 194 65.0
e 43 156 58.0
e 44 130 1.0
e 46 229 5.0
e 47 3 21.0
e 47 279 2.0
e 47 231 6.0
e 48 88 78.0
e 49 106 1.0
e 49 300 6.0
e 50 160 12.0
e 50 181 5.0
e 53 221 69.0
e 53 214 7.0
e 53 154 46.0
e 53 17 49.0
e 53 310 51.0
e 53 275 39.0
e 53 33 40.0
e 53 201 87.0
e 53 98 55.0
e 53 68 1.0
e 53 316 7.0
e 53 61 5.0
e 53 257 83.0
e 53 72 14.0
e 53 281 14.0
e 53 202 1.0
e 53 69 86.0
e 53 148 29.0
e 53 313 85.0
e 53 249 25.0
e 53 78 83.0
e 53 62 100.0
e 53 172 10.0
e 53 54 77.0
e 53 9 70.0
e 53 302 71.0
e 53 10 50.0
e 56 106 8.0
e 56 297 9.0
e 56 177 8.0
e 56 121 20.0
e 56 113 8.0
e 56 307 24.0
e 56 2 73.0
e 57 98 98.0
e 57 262 48.0
e 57 58 19.0
e 57 56 24.0
e 57 258 11.0
e 57 199 48.0
e 57 188 99.0
e 57 137 78.0
e 57 221 65.0
e 57 88 49.0
e 57 64 70.0
e 57 46 44.0
e 57 207 2.0
e 57 154 91.0
e 57 187 27.0
e 57 24 13.0
e 57 314 66.0
e 57 142 4.0
e 57 166 76.0
e 57 282 51.0
e 57 165 19.0
e 57 232 90.0
e 57 2 55.0
e 57 94 56.0
e 57 55 9.0
e 58 301 14.0
e 58 311 33.0
e 58 229 16.0
e 58 215 19.0
e 58 291 65.0
e 58 109 8.0
e 59 260 1.0
e 61 34 23.0
e 61 171 97.0
e 61 2 63.0
e 61 57 14.0
e 61 189 3.0
e 61 236 77.0
e 61 51 58.0
e 61 54 66.0
e 61 21 95.0
e 61 64 20.0
e 61 133 34.0
e 61 241 54.0
e 61 97 83.0
e 61 215 10.0
e 61 180 77.0
e 61 261 75.0
e 61 73 1.0
e 61 136 77.0
e 61 246 49.0
e 61 250 92.0
e 61 294 51.0
e 61 177 35.0
e 61 157 76.0
e 61 295 35.0
e 61 273 17.0
e 64 52 5.0
e 65 225 17.0
e 65 136 24.0
e 65 238 19.0
e 65 106 11.0
e 65 46 16.0
e 65 115 19.0
e 65 224 1.0
e 66 117 5.0
e 69 117 6.0
e 69 153 5.0
e 69 210 14.0
e 69 55 1.0
e 69 56 13.0
e 69 315 86.0
e 71 245 70.0
e 75 2 8.0
e 76 142 39.0
e 77 180 3.0
e 77 55 15.0
e 77 123 3.0
e 77 67 7.0
e 80 211 1.0
e 81 128 6.0
e 82 134 3.0
e 84 61 47.0
e 84 165 1.0
e 84 223 69.0
e 84 275 71.0
e 84 43 78.0
e 84 313 96.0
e 84 57 76.0
e 84 42 32.0
e 84 171 99.0
e 84 163 41.0
e 84 288 95.0
e 84 85 64.0
e 84 258 79.0
e 84 122 38.0
e 84 166 57.0
e 84 167 22.0
e 84 90 97.0
e 84 81 30.0
e 84 168 25.0
e 84 154 49.0
e 84 49 51.0
e 84 159 88.0
e 84 301 87.0
e 84 91 29.0
e 84 318 62.0
e 84 211 19.0
e 84 96 76.0
e 86 44 94.0
e 86 13 1.0
e 86 266 100.0
e 86 88 71.0
e 86 308 85.0
e 86 298 81.0
e 86 177 75.0
e 86 89 32.0
e 86 154 60.0
e 86 93 53.0
e 86 129 22.0
e 86 31 55.0
e 86 175 49.0
e 86 67 100.0
e 86 121 33.0
e 86 274 95.0
e 86 163 16.0
e 86 68 47.0
e 86 162 99.0
e 86 126 4.0
e 86 84 69.0
e 86 139 44.0
e 86 261 37.0
e 86 192 65.0
e 87 174 25.0
e 87 194 67.0
e 87 213 39.0
e 87 216 32.0
e 87 275 33.0
e 87 22 70.0
e 87 298 45.0
e 87 238 44.0
e 87 214 50.0
e 87 195 29.0
e 87 80 10.0
e 87 191 46.0
e 87 261 82.0
e 87 93 40.0
e 87 29 78.0
e 87 239 67.0
e 87 67 94.0
e 87 131 23.0
e 87 76 90.0
e 87 220 95.0
e 87 77 86.0
e 87 181 54.0
e 88 96 51.0
e 88 222 65.0
e 88 53 33.0
e 88 2 68.0
e 88 304 19.0
e 88 301 60.0
e 88 17 54.0
e 88 243 14.0
e 88 157 43.0
e 88 58 63.0
e 88 87 25.0
e 88 106 91.0
e 88 248 83.0
e 88 152 81.0
e 88 83 22.0
e 88 203 85.0
e 88 107 94.0
e 88 247 89.0
e 88 56 2.0
e 88 210 25.0
e 88 244 43.0
e 88 211 57.0
e 90 249 22.0
e 90 254 24.0
e 90 204 33.0
e 90 34 20.0
e 90 148 5.0
e 91 27 25.0
e 91 133 83.0
e 91 92 86.0
e 91 1 17.0
e 91 207 35.0
e 91 89 16.0
e 91 218 10.0
e 91 171 8.0
e 91 222 15.0
e 91 317 52.0
e 91 271 30.0
e 91 68 27.0
e 91 58 52.0
e 91 157 36.0
e 91 4 55.0
e 91 146 46.0
e 91 315 64.0
e 91 108 35.0
e 91 166 85.0
e 91 279 11.0
e 91 96 59.0
e 91 219 94.0
e 91 223 31.0
e 91 98 75.0
e 92 189 9.0
e 92 150 10.0
e 94 271 25.0
e 94 280 4.0
e 94 227 25.0
e 94 247 43.0
e 94 206 80.0
e 94 225 15.0
e 94 295 10.0
e 94 290 85.0
e 94 201 46.0
e 94 286 14.0
e 94 4 72.0
e 94 29 71.0
e 94 0 8.0
e 94 80 25.0
e 94 315 94.0
e 94 125 50.0
e 94 249 81.0
e 94 111 81.0
e 94 220 42.0
e 94 65 29.0
e 94 89 20.0
e 94 248 18.0
e 94 234 21.0
e 97 11 17.0
e 97 285 9.0
e 97 96 86.0
e 97 249 83.0
e 97 170 76.0
e 97 108 82.0
e 97 293 17.0
e 97 162 58.0
e 97 284 5.0
e 97 202 22.0
e 97 292 35.0
e 97 54 1.0
e 97 181 49.0
e 97 303 12.0
e 97 270 4.0
e 97 234 11.0
e 97 306 49.0
e 97 206 49.0
e 97 151 51.0
e 97 39 48.0
e 97 294 90.0
e 97 204 2.0
e 97 173 78.0
e 97 299 80.0
e 97 296 71.0
e 100 176 8.0
e 100 199 97.0
e 100 304 23.0
e 100 13 31.0
e 100 262 19.0
e 100 163 14.0
e 100 127 80.0
e 100 97 66.0
e 100 94 59.0
e 100 238 95.0
e 100 192 14.0
e 100 76 3.0
e 100 24 19.0
e 100 188 30.0
e 100 183 45.0
e 100 51 73.0
e 100 39 80.0
e 100 270 97.0
e 100 113 50.0
e 100 275 61.0
e 100 45 31.0
e 100 21 52.0
e 100 165 35.0
e 100 230 87.0
e 100 175 8.0
e 102 20 18.0
e 104 293 1.0
e 110 264 1.0
e 112 168 1.0
e 116 317 4.0
e 116 0 2.0
e 118 180 2.0
e 119 69 2.0
e 120 261 2.0
e 123 279 89.0
e 123 27 13.0
e 123 247 74.0
e 123 50 55.0
e 123 251 73.0
e 123 69 49.0
e 123 11 99.0
e 123 285 92.0
e 123 117 43.0
e 123 244 17.0
e 123 73 83.0
e 123 266 13.0
e 123 177 99.0
e 123 24 61.0
e 123 231 56.0
e 123 234 70.0
e 123 88 85.0
e 123 68 72.0
e 123 222 64.0
e 123 104 41.0
e 123 141 26.0
e 123 200 97.0
e 123 173 78.0
e 123 124 80.0
e 123 252 77.0
e 123 59 12.0
e 124 39 8.0
e 126 161 10.0
e 128 286 1.0
e 131 8 3.0
e 134 247 4.0
e 140 184 45.0
e 140 122 4.0
e 142 103 26.0
e 142 141 8.0
e 142 229 70.0
e 142 41 39.0
e 142 25 25.0
e 142 177 92.0
e 142 160 16.0
e 142 77 10.0
e 142 220 78.0
e 142 5 56.0
e 142 150 10.0
e 142 253 93.0
e 142 176 68.0
e 142 238 2.0
e 142 191 59.0
e 142 310 11.0
e 142 6 74.0
e 142 272 28.0
e 142 296 66.0
e 142 211 65.0
e 142 269 93.0
e 142 283 13.0
e 142 189 74.0
e 142 26 29.0
e 142 68 63.0
e 143 3 27.0
e 143 221 33.0
e 143 234 43.0
e 143 2 68.0
e 143 243 14.0
e 143 121 82.0
e 143 268 42.0
e 143 86 85.0
e 143 293 26.0
e 143 279 17.0
e 143 102 1.0
e 143 292 17.0
e 143 269 5.0
e 143 256 21.0
e 143 177 74.0
e 143 299 62.0
e 143 153 39.0
e 143 7 89.0
e 143 88 91.0
e 143 280 24.0
e 143 33 11.0
e 143 56 27.0
e 143 95 6.0
e 143 103 63.0
e 143 285 82.0
e 143 137 38.0
e 143 28 6.0
e 145 148 1.0
e 149 277 6.0
e 149 168 6.0
e 149 98 1.0
e 149 166 7.0
e 155 167 14.0
e 155 62 18.0
e 155 285 58.0
e 155 270 35.0
e 155 273 11.0
e 155 137 46.0
e 155 316 29.0
e 155 74 80.0
e 155 303 5.0
e 155 186 33.0
e 155 128 13.0
e 155 22 28.0
e 155 121 13.0
e 155 114 70.0
e 155 149 55.0
e 155 124 64.0
e 155 117 77.0
e 155 60 18.0
e 155 145 81.0
e 155 119 85.0
e 155 296 37.0
e 155 274 8.0
e 155 150 70.0
e 155 247 93.0
e 155 14 22.0
e 155 202 57.0
e 156 207 34.0
e 156 232 90.0
e 156 255 81.0
e 156 155 97.0
e 156 297 27.0
e 156 245 72.0
e 156 131 41.0
e 156 231 28.0
e 156 66 97.0
e 156 39 92.0
e 156 316 64.0
e 156 298 17.0
e 156 290 69.0
e 156 202 32.0
e 156 65 100.0
e 156 241 69.0
e 156 237 70.0
e 156 317 82.0
e 156 228 26.0
e 156 86 47.0
e 156 199 60.0
e 156 67 21.0
e 156 306 83.0
e 156 42 91.0
e 156 82 14.0
e 159 81 31.0
e 159 310 9.0
e 159 300 21.0
e 159 171 17.0
e 159 95 36.0
e 159 295 47.0
e 159 284 42.0
e 159 283 92.0
e 159 236 29.0
e 159 309 20.0
e 159 173 11.0
e 159 160 9.0
e 160 300 10.0
e 161 172 2.0
e 161 225 1.0
e 161 80 8.0
e 161 220 20.0
e 161 44 22.0
e 169 192 2.0
e 177 132 5.0
e 179 195 5.0
e 179 42 9.0
e 179 261 12.0
e 179 249 3.0
e 182 261 1.0
e 184 56 3.0
e 184 185 36.0
e 184 75 28.0
e 184 236 32.0
e 184 276 11.0
e 184 134 34.0
e 184 242 50.0
e 184 48 1.0
e 184 291 43.0
e 184 105 49.0
e 184 73 27.0
e 184 187 32.0
e 184 186 37.0
e 185 280 2.0
e 185 4 8.0
e 186 262 33.0
e 186 288 16.0
e 186 101 22.0
e 186 106 47.0
e 186 45 100.0
e 186 97 70.0
e 186 108 18.0
e 186 281 52.0
e 186 113 61.0
e 186 303 91.0
e 186 276 16.0
e 186 282 63.0
e 186 221 98.0
e 186 180 72.0
e 186 96 59.0
e 186 176 92.0
e 186 150 62.0
e 186 61 85.0
e 186 19 42.0
e 186 172 12.0
e 186 36 65.0
e 190 20 5.0
e 190 152 20.0
e 190 21 84.0
e 190 173 98.0
e 190 252 80.0
e 190 185 30.0
e 190 151 29.0
e 190 294 23.0
e 190 140 66.0
e 190 298 88.0
e 190 86 67.0
e 190 110 66.0
e 190 70 21.0
e 190 114 9.0
e 190 92 79.0
e 190 95 54.0
e 190 235 34.0
e 190 181 37.0
e 190 73 82.0
e 190 208 68.0
e 190 242 15.0
e 190 215 29.0
e 190 166 60.0
e 190 31 11.0
e 190 277 42.0
e 190 303 61.0
e 191 231 56.0
e 191 63 51.0
e 191 154 67.0
e 191 153 13.0
e 191 181 74.0
e 191 9 13.0
e 191 302 78.0
e 191 228 43.0
e 191 71 92.0
e 191 155 28.0
e 191 214 99.0
e 191 22 28.0
e 191 185 80.0
e 191 64 64.0
e 191 50 52.0
e 191 199 71.0
e 191 159 66.0
e 191 186 75.0
e 191 184 10.0
e 191 305 10.0
e 191 0 70.0
e 191 13 51.0
e 191 86 20.0
e 191 250 44.0
e 193 318 93.0
e 193 181 39.0
e 193 235 99.0
e 193 221 84.0
e 193 309 31.0
e 193 22 52.0
e 193 276 28.0
e 193 190 42.0
e 193 233 68.0
e 193 3 10.0
e 193 261 83.0
e 193 70 96.0
e 193 26 60.0
e 193 207 64.0
e 193 298 83.0
e 193 34 45.0
e 193 312 34.0
e 193 310 30.0
e 193 249 17.0
e 193 263 19.0
e 193 29 18.0
e 193 92 61.0
e 193 125 9.0
e 193 48 10.0
e 193 199 27.0
e 193 114 66.0
e 193 35 75.0
e 196 275 4.0
e 197 181 1.0
e 197 268 2.0
e 199 316 69.0
e 199 152 26.0
e 199 153 26.0
e 199 114 45.0
e 199 23 51.0
e 199 115 86.0
e 199 146 9.0
e 199 282 91.0
e 199 212 54.0
e 199 51 66.0
e 199 42 51.0
e 199 266 6.0
e 199 97 98.0
e 199 250 47.0
e 199 27 13.0
e 199 221 55.0
e 199 239 33.0
e 199 271 34.0
e 199 283 3.0
e 199 170 64.0
e 199 281 31.0
e 200 44 1.0
e 204 96 8.0
e 204 171 18.0
e 204 147 29.0
e 204 98 10.0
e 204 108 21.0
e 204 9 15.0
e 204 194 19.0
e 204 163 11.0
e 204 29 16.0
e 204 3 3.0
e 204 143 4.0
e 205 190 77.0
e 205 178 4.0
e 209 7 6.0
e 209 115 1.0
e 210 226 1.0
e 212 189 11.0
e 213 175 9.0
e 215 289 3.0
e 215 143 13.0
e 215 117 13.0
e 215 195 17.0
e 218 93 10.0
e 218 301 9.0
e 218 271 11.0
e 222 280 5.0
e 222 92 14.0
e 233 242 48.0
e 233 316 59.0
e 233 153 23.0
e 233 229 34.0
e 233 168 15.0
e 233 141 22.0
e 233 214 63.0
e 233 306 71.0
e 233 206 84.0
e 233 125 40.0
e 233 304 68.0
e 233 307 39.0
e 233 142 44.0
e 233 84 65.0
e 233 300 100.0
e 233 297 72.0
e 233 62 28.0
e 233 148 99.0
e 233 60 57.0
e 233 93 44.0
e 233 23 86.0
e 233 310 27.0
e 233 246 59.0
e 233 67 99.0
e 237 129 15.0
e 237 244 7.0
e 237 245 20.0
e 237 232 22.0
e 243 257 76.0
e 243 165 34.0
e 243 306 31.0
e 243 134 83.0
e 243 135 33.0
e 243 38 67.0
e 243 30 32.0
e 243 258 29.0
e 243 42 88.0
e 243 291 36.0
e 243 270 26.0
e 243 178 97.0
e 243 171 21.0
e 243 23 24.0
e 243 189 86.0
e 243 89 4.0
e 243 281 40.0
e 243 46 2.0
e 243 168 87.0
e 243 236 58.0
e 243 158 84.0
e 243 52 86.0
e 243 199 56.0
e 243 68 26.0
e 243 159 93.0
e 245 58 17.0
e 245 125 86.0
e 245 27 85.0
e 245 254 46.0
e 245 182 36.0
e 245 298 53.0
e 245 63 52.0
e 245 152 95.0
e 245 180 29.0
e 245 42 94.0
e 245 155 22.0
e 245 135 5.0
e 245 33 69.0
e 245 129 64.0
e 245 178 45.0
e 245 46 44.0
e 245 143 74.0
e 245 1 78.0
e 245 29 8.0
e 245 19 66.0
e 245 207 11.0
e 245 154 48.0
e 245 74 79.0
e 245 169 91.0
e 246 13 4.0
e 246 54 2.0
e 251 269 2.0
e 255 149 12.0
e 255 39 3.0
e 255 59 1.0
e 256 124 11.0
e 256 241 5.0
e 259 186 87.0
e 263 121 7.0
e 263 233 67.0
e 263 239 96.0
e 263 88 16.0
e 263 235 14.0
e 263 128 3.0
e 263 99 78.0
e 263 151 22.0
e 263 312 45.0
e 263 100 44.0
e 263 6 30.0
e 263 317 4.0
e 263 303 50.0
e 263 132 1.0
e 263 318 93.0
e 263 217 7.0
e 263 154 5.0
e 263 63 11.0
e 263 150 100.0
e 263 307 39.0
e 263 47 52.0
e 263 158 64.0
e 263 62 10.0
e 263 59 74.0
e 263 101 38.0
e 263 71 94.0
e 265 189 12.0
e 265 149 7.0
e 265 17 36.0
e 265 127 16.0
e 265 121 21.0
e 265 153 15.0
e 266 181 30.0
e 266 184 9.0
e 266 1 76.0
e 266 88 64.0
e 266 50 35.0
e 266 306 27.0
e 266 269 40.0
e 266 195 30.0
e 266 265 42.0
e 266 177 25.0
e 266 262 12.0
e 267 255 5.0
e 272 34 3.0
e 283 226 10.0
e 283 278 34.0
e 283 210 98.0
e 283 177 10.0
e 283 77 56.0
e 283 171 88.0
e 283 1 18.0
e 283 276 88.0
e 283 113 60.0
e 283 202 46.0
e 283 282 31.0
e 283 279 54.0
e 283 88 66.0
e 283 247 30.0
e 283 30 80.0
e 283 243 70.0
e 283 80 89.0
e 283 87 23.0
e 283 129 3.0
e 283 222 78.0
e 283 230 16.0
e 283 5 29.0
e 291 260 58.0
e 291 208 5.0
e 291 110 49.0
e 291 277 37.0
e 291 16 48.0
e 291 88 66.0
e 291 126 74.0
e 291 210 59.0
e 291 297 91.0
e 291 139 62.0
e 291 251 96.0
e 291 232 96.0
e 291 244 87.0
e 291 172 24.0
e 291 128 19.0
e 291 231 75.0
e 291 209 91.0
e 291 228 79.0
e 291 30 82.0
e 291 276 9.0
e 291 253 30.0
e 291 70 60.0
e 291 60 84.0
e 292 134 1.0
e 292 173 3.0
e 292 153 15.0
e 292 110 25.0
e 296 30 80.0
e 296 44 29.0
e 296 168 5.0
e 296 153 1.0
e 296 41 87.0
e 296 307 76.0
e 296 151 54.0
e 296 33 90.0
e 296 182 56.0
e 296 47 72.0
e 296 268 47.0
e 296 119 24.0
e 296 139 88.0
e 296 262 5.0
e 296 66 35.0
e 296 183 88.0
e 296 295 97.0
e 296 69 82.0
e 296 174 99.0
e 296 31 82.0
e 296 302 30.0
e 296 122 74.0
e 296 56 66.0
e 311 173 76.0
e 311 15 53.0
e 311 93 88.0
e 311 121 55.0
e 311 41 20.0
e 311 119 86.0
e 311 277 93.0
e 311 139 16.0
e 311 240 76.0
e 311 241 59.0
e 311 269 11.0
e 311 163 27.0
e 311 47 69.0
e 311 299 97.0
e 311 276 95.0
e 311 238 66.0
e 311 86 80.0
e 311 54 30.0
e 311 253 44.0
e 311 130 98.0
e 311 111 56.0
e 311 152 54.0
e 311 80 73.0
e 311 95 67.0
e 311 230 22.0
e 315 4 89.0
e 315 214 54.0
e 315 242 17.0
e 315 290 47.0
e 315 273 21.0
e 315 34 86.0
e 315 317 34.0
e 315 135 44.0
e 315 60 63.0
e 315 235 38.0
e 315 26 88.0
e 315 5 50.0
e 315 90 13.0
e 315 266 30.0
e 315 187 84.0
e 315 118 76.0
e 315 144 69.0
e 315 180 72.0
e 315 199 33.0
e 315 166 27.0
e 315 9 31.0
e 315 316 10.0
e 315 149 48.0
e 319 220 1.0
e 319 81 6.0
e 319 251 6.0
e 319 256 6.0
